cost: 1033.50
Route 1:           0    2   32   20   13    6   35    0
Route 2:           0    8   21   34   26    0
Route 3:           0   15    3   27   36   14    0
Route 4:           0   31   22   29   41   49    0
Route 5:           0   38   16   42   40    4    7    0
Route 6:           0   39   23   30    9   33   43   25    0
Route 7:           0   44   12   47    1   24    0
Route 8:           0   45   48   18   10    5    0
Route 9:           0   50   28   17   46   37   11   19    0
